10
5
710322
0
0
266 8 156 92 53
1
0
256 8 187 98 36
2
0
279 5 146 88 60
3
0
251 8 192 90 68
4
0
256 9 158 91 81
5
0
250 9 190 82 73
6
0
263 5 165 89 45
7
0
275 11 183 103 62
8
0
277 4 197 102 63
9
0
322 13 176 115 55
